c ind 100 102 104 106 108 110 112 114 116 118 0
c ind 120 122 124 128 145 148 151 154 157 174 0
c ind 176 178 180 182 184 186 188 190 192 194 0
c ind 196 198 200 202 204 21 22 24 26 28 0
c ind 3 30 32 34 36 38 4 40 42 44 0
c ind 46 48 50 52 55 59 76 94 96 98 0
p cnf 204 509
-1 -2 5 0
-1 2 53 0
-10 11 0
-10 41 0
-101 -102 30 0
-101 -30 102 0
-103 -104 32 0
-103 -32 104 0
-105 -106 34 0
-105 -34 106 0
-107 -108 36 0
-107 -36 108 0
-109 -110 38 0
-109 -38 110 0
-11 12 0
-11 39 0
-111 -112 40 0
-111 -40 112 0
-113 -114 42 0
-113 -42 114 0
-115 -116 44 0
-115 -44 116 0
-117 -118 46 0
-117 -46 118 0
-119 -120 48 0
-119 -48 120 0
-12 13 0
-12 37 0
-121 -122 50 0
-121 -50 122 0
-123 -124 52 0
-123 -52 124 0
-125 -126 78 0
-125 126 146 0
-126 127 0
-126 129 0
-127 -128 4 0
-127 -4 128 0
-129 130 0
-129 77 0
-13 14 0
-13 35 0
-130 131 0
-130 77 0
-131 132 0
-131 77 0
-132 133 0
-132 77 0
-133 134 0
-133 77 0
-134 135 0
-134 77 0
-135 136 0
-135 77 0
-136 137 0
-136 77 0
-137 138 0
-137 77 0
-138 139 0
-138 77 0
-139 140 0
-139 77 0
-14 15 0
-14 33 0
-140 141 0
-140 77 0
-141 142 0
-141 77 0
-142 143 0
-142 77 0
-143 144 0
-143 77 0
-144 -145 22 0
-144 -22 145 0
-146 -147 78 0
-146 147 149 0
-147 -148 4 0
-147 -4 148 0
-149 -150 78 0
-149 150 152 0
-15 16 0
-15 31 0
-150 -151 4 0
-150 -4 151 0
-152 -153 78 0
-152 153 155 0
-153 -154 4 0
-153 -4 154 0
-155 -156 158 0
-155 156 78 0
-156 -157 4 0
-156 -4 157 0
-158 159 0
-158 203 0
-159 160 0
-159 201 0
-16 17 0
-16 29 0
-160 161 0
-160 199 0
-161 162 0
-161 197 0
-162 163 0
-162 195 0
-163 164 0
-163 193 0
-164 165 0
-164 191 0
-165 166 0
-165 189 0
-166 167 0
-166 187 0
-167 168 0
-167 185 0
-168 169 0
-168 183 0
-169 170 0
-169 181 0
-17 18 0
-17 27 0
-170 171 0
-170 179 0
-171 172 0
-171 177 0
-172 173 0
-172 175 0
-173 -174 21 0
-173 -21 174 0
-175 -176 24 0
-175 -24 176 0
-177 -178 26 0
-177 -26 178 0
-179 -180 28 0
-179 -28 180 0
-18 19 0
-18 25 0
-181 -182 30 0
-181 -30 182 0
-183 -184 32 0
-183 -32 184 0
-185 -186 34 0
-185 -34 186 0
-187 -188 36 0
-187 -36 188 0
-189 -190 38 0
-189 -38 190 0
-19 20 0
-19 23 0
-191 -192 40 0
-191 -40 192 0
-193 -194 42 0
-193 -42 194 0
-195 -196 44 0
-195 -44 196 0
-197 -198 46 0
-197 -46 198 0
-199 -200 48 0
-199 -48 200 0
-2 -3 4 0
-2 -4 3 0
-20 -21 22 0
-20 -22 21 0
-201 -202 50 0
-201 -50 202 0
-203 -204 52 0
-203 -52 204 0
-22 0
-23 -22 24 0
-23 -24 22 0
-25 -22 26 0
-25 -26 22 0
-27 -22 28 0
-27 -28 22 0
-29 -22 30 0
-29 -30 22 0
-31 -22 32 0
-31 -32 22 0
-33 -22 34 0
-33 -34 22 0
-35 -22 36 0
-35 -36 22 0
-37 -22 38 0
-37 -38 22 0
-39 -22 40 0
-39 -40 22 0
-41 -22 42 0
-41 -42 22 0
-43 -22 44 0
-43 -44 22 0
-45 -22 46 0
-45 -46 22 0
-47 -22 48 0
-47 -48 22 0
-49 -22 50 0
-49 -50 22 0
-5 51 0
-5 6 0
-51 -22 52 0
-51 -52 22 0
-53 -54 56 0
-53 54 78 0
-54 -4 55 0
-54 -55 4 0
-56 -57 78 0
-56 57 125 0
-57 58 0
-57 60 0
-58 -4 59 0
-58 -59 4 0
-6 49 0
-6 7 0
-60 61 0
-60 77 0
-61 62 0
-61 77 0
-62 63 0
-62 77 0
-63 64 0
-63 77 0
-64 65 0
-64 77 0
-65 66 0
-65 77 0
-66 67 0
-66 77 0
-67 68 0
-67 77 0
-68 69 0
-68 77 0
-69 70 0
-69 77 0
-7 47 0
-7 8 0
-70 71 0
-70 77 0
-71 72 0
-71 77 0
-72 73 0
-72 77 0
-73 74 0
-73 77 0
-74 75 0
-74 77 0
-75 -22 76 0
-75 -76 22 0
-77 -22 22 0
-78 123 0
-78 79 0
-79 121 0
-79 80 0
-8 45 0
-8 9 0
-80 119 0
-80 81 0
-81 117 0
-81 82 0
-82 115 0
-82 83 0
-83 113 0
-83 84 0
-84 111 0
-84 85 0
-85 109 0
-85 86 0
-86 107 0
-86 87 0
-87 105 0
-87 88 0
-88 103 0
-88 89 0
-89 101 0
-89 90 0
-9 10 0
-9 43 0
-90 91 0
-90 99 0
-91 92 0
-91 97 0
-92 93 0
-92 95 0
-93 -21 94 0
-93 -94 21 0
-95 -24 96 0
-95 -96 24 0
-97 -26 98 0
-97 -98 26 0
-99 -100 28 0
-99 -28 100 0
1 -2 -5 0
1 -5 -53 0
1 0
1 2 -53 0
10 -11 -41 0
101 -30 -102 0
101 30 102 0
103 -32 -104 0
103 32 104 0
105 -34 -106 0
105 34 106 0
107 -36 -108 0
107 36 108 0
109 -38 -110 0
109 38 110 0
11 -12 -39 0
111 -40 -112 0
111 40 112 0
113 -42 -114 0
113 42 114 0
115 -44 -116 0
115 44 116 0
117 -46 -118 0
117 46 118 0
119 -48 -120 0
119 48 120 0
12 -13 -37 0
121 -50 -122 0
121 50 122 0
123 -52 -124 0
123 52 124 0
125 -126 -78 0
125 -78 -146 0
125 126 -146 0
126 -127 -129 0
127 -128 -4 0
127 128 4 0
129 -130 -77 0
13 -14 -35 0
130 -131 -77 0
131 -132 -77 0
132 -133 -77 0
133 -134 -77 0
134 -135 -77 0
135 -136 -77 0
136 -137 -77 0
137 -138 -77 0
138 -139 -77 0
139 -140 -77 0
14 -15 -33 0
140 -141 -77 0
141 -142 -77 0
142 -143 -77 0
143 -144 -77 0
144 -145 -22 0
144 145 22 0
146 -147 -78 0
146 -78 -149 0
146 147 -149 0
147 -148 -4 0
147 148 4 0
149 -150 -78 0
149 -78 -152 0
149 150 -152 0
15 -16 -31 0
150 -151 -4 0
150 151 4 0
152 -153 -78 0
152 -78 -155 0
152 153 -155 0
153 -154 -4 0
153 154 4 0
155 -156 -158 0
155 -158 -78 0
155 156 -78 0
156 -157 -4 0
156 157 4 0
158 -159 -203 0
159 -160 -201 0
16 -17 -29 0
160 -161 -199 0
161 -162 -197 0
162 -163 -195 0
163 -164 -193 0
164 -165 -191 0
165 -166 -189 0
166 -167 -187 0
167 -168 -185 0
168 -169 -183 0
169 -170 -181 0
17 -18 -27 0
170 -171 -179 0
171 -172 -177 0
172 -173 -175 0
173 -21 -174 0
173 21 174 0
175 -24 -176 0
175 24 176 0
177 -26 -178 0
177 26 178 0
179 -28 -180 0
179 28 180 0
18 -19 -25 0
181 -30 -182 0
181 30 182 0
183 -32 -184 0
183 32 184 0
185 -34 -186 0
185 34 186 0
187 -36 -188 0
187 36 188 0
189 -38 -190 0
189 38 190 0
19 -20 -23 0
191 -40 -192 0
191 40 192 0
193 -42 -194 0
193 42 194 0
195 -44 -196 0
195 44 196 0
197 -46 -198 0
197 46 198 0
199 -48 -200 0
199 48 200 0
2 -3 -4 0
2 3 4 0
20 -21 -22 0
20 21 22 0
201 -50 -202 0
201 50 202 0
203 -52 -204 0
203 52 204 0
23 -24 -22 0
23 24 22 0
25 -26 -22 0
25 26 22 0
27 -28 -22 0
27 28 22 0
29 -30 -22 0
29 30 22 0
31 -32 -22 0
31 32 22 0
33 -34 -22 0
33 34 22 0
35 -36 -22 0
35 36 22 0
37 -38 -22 0
37 38 22 0
39 -40 -22 0
39 40 22 0
4 0
41 -42 -22 0
41 42 22 0
43 -44 -22 0
43 44 22 0
45 -46 -22 0
45 46 22 0
47 -48 -22 0
47 48 22 0
49 -50 -22 0
49 50 22 0
5 -6 -51 0
51 -52 -22 0
51 52 22 0
53 -54 -56 0
53 -56 -78 0
53 54 -78 0
54 -55 -4 0
54 55 4 0
56 -57 -78 0
56 -78 -125 0
56 57 -125 0
57 -58 -60 0
58 -59 -4 0
58 59 4 0
6 -7 -49 0
60 -61 -77 0
61 -62 -77 0
62 -63 -77 0
63 -64 -77 0
64 -65 -77 0
65 -66 -77 0
66 -67 -77 0
67 -68 -77 0
68 -69 -77 0
69 -70 -77 0
7 -8 -47 0
70 -71 -77 0
71 -72 -77 0
72 -73 -77 0
73 -74 -77 0
74 -75 -77 0
75 -76 -22 0
75 76 22 0
77 -22 -22 0
77 22 22 0
78 -79 -123 0
79 -80 -121 0
8 -9 -45 0
80 -81 -119 0
81 -82 -117 0
82 -83 -115 0
83 -84 -113 0
84 -85 -111 0
85 -86 -109 0
86 -87 -107 0
87 -88 -105 0
88 -89 -103 0
89 -90 -101 0
9 -10 -43 0
90 -91 -99 0
91 -92 -97 0
92 -93 -95 0
93 -21 -94 0
93 21 94 0
95 -24 -96 0
95 24 96 0
97 -26 -98 0
97 26 98 0
99 -28 -100 0
99 28 100 0
